# Objective value = 38.0
xobj 38.0
x0_r1 -1.6653345369377348e-15
x1_r1 -1.6653345369377348e-15
x2_r1 -0.0
x3_r1 -0.0
y0_r1 -0.0
y1_r1 -0.0
y2_r1 -1.6653345369377348e-15
y3_r1 0.0
SH0_r1 0.0
SL0_r1 -0.0
x4_r1 0.0
x5_r1 0.0
x6_r1 -0.0
x7_r1 0.0
y4_r1 0.0
y5_r1 -0.0
y6_r1 -0.0
y7_r1 0.0
SH1_r1 -0.0
SL1_r1 -0.0
x8_r1 -0.0
x9_r1 -0.0
x10_r1 -0.0
x11_r1 -0.0
y8_r1 -0.0
y9_r1 -1.9801868478275253e-15
y10_r1 -0.0
y11_r1 0.0
SH2_r1 -0.0
SL2_r1 -0.0
x12_r1 -0.0
x13_r1 -0.0
x14_r1 -0.0
x15_r1 -0.0
y12_r1 -0.0
y13_r1 -0.0
y14_r1 -0.0
y15_r1 -0.0
SH3_r1 0.0
SL3_r1 -0.0
x16_r1 -0.0
x17_r1 -0.0
x18_r1 0.0
x19_r1 0.0
y16_r1 0.0
y17_r1 -0.0
y18_r1 -0.0
y19_r1 -0.0
SH4_r1 0.0
SL4_r1 -0.0
x20_r1 -0.0
x21_r1 0.0
x22_r1 -0.0
x23_r1 -0.0
y20_r1 -0.0
y21_r1 0.0
y22_r1 -0.0
y23_r1 0.0
SH5_r1 -0.0
SL5_r1 -0.0
x24_r1 0.0
x25_r1 -0.0
x26_r1 -0.0
x27_r1 -0.0
y24_r1 0.0
y25_r1 -0.0
y26_r1 -0.0
y27_r1 -0.0
SH6_r1 0.0
SL6_r1 -0.0
x28_r1 0.0
x29_r1 0.0
x30_r1 0.0
x31_r1 0.0
y28_r1 -0.0
y29_r1 -0.0
y30_r1 -0.0
y31_r1 -0.0
SH7_r1 0.0
SL7_r1 -0.0
x32_r1 -3.3306690738754696e-16
x33_r1 0.0
x34_r1 0.0
x35_r1 -4.440892098500626e-16
y32_r1 -0.0
y33_r1 -0.0
y34_r1 -0.0
y35_r1 0.0
SH8_r1 0.0
SL8_r1 -0.0
x36_r1 0.0
x37_r1 4.440892098500626e-16
x38_r1 -1.1102230246251565e-16
x39_r1 0.0
y36_r1 -0.0
y37_r1 -0.0
y38_r1 0.0
y39_r1 0.0
SH9_r1 0.0
SL9_r1 -0.0
x40_r1 -0.0
x41_r1 -0.0
x42_r1 -0.0
x43_r1 -0.0
y40_r1 -0.0
y41_r1 -0.0
y42_r1 -0.0
y43_r1 -0.0
SH10_r1 -0.0
SL10_r1 -0.0
x44_r1 0.0
x45_r1 1.0
x46_r1 1.0
x47_r1 1.0
y44_r1 -0.0
y45_r1 -0.0
y46_r1 -0.0
y47_r1 1.0
SH11_r1 1.0
SL11_r1 -0.0
x48_r1 -0.0
x49_r1 -0.0
x50_r1 -0.0
x51_r1 0.0
y48_r1 -0.0
y49_r1 -0.0
y50_r1 -0.0
y51_r1 -0.0
SH12_r1 0.0
SL12_r1 -0.0
x52_r1 -0.0
x53_r1 0.0
x54_r1 -0.0
x55_r1 0.0
y52_r1 -0.0
y53_r1 -0.0
y54_r1 -0.0
y55_r1 0.0
SH13_r1 -0.0
SL13_r1 -0.0
x56_r1 0.0
x57_r1 0.0
x58_r1 0.0
x59_r1 -0.0
y56_r1 -0.0
y57_r1 -0.0
y58_r1 -0.0
y59_r1 0.0
SH14_r1 0.0
SL14_r1 -0.0
x60_r1 0.0
x61_r1 -0.0
x62_r1 0.0
x63_r1 0.0
y60_r1 -0.0
y61_r1 0.0
y62_r1 -0.0
y63_r1 -0.0
SH15_r1 0.0
SL15_r1 -0.0
y0_r2 -0.0
y1_r2 -0.0
y2_r2 0.0
y3_r2 -0.0
SH0_r2 -0.0
SL0_r2 -0.0
y4_r2 -0.0
y5_r2 -0.0
y6_r2 -0.0
y7_r2 0.0
SH1_r2 0.0
SL1_r2 -0.0
y8_r2 0.0
y9_r2 0.0
y10_r2 -0.0
y11_r2 0.0
SH2_r2 0.0
SL2_r2 -0.0
y12_r2 -0.0
y13_r2 -0.0
y14_r2 0.0
y15_r2 -0.0
SH3_r2 0.0
SL3_r2 -0.0
y16_r2 -0.0
y17_r2 -0.0
y18_r2 -0.0
y19_r2 -1.9524312722118964e-15
SH4_r2 -1.9524312722118964e-15
SL4_r2 -0.0
y20_r2 -0.0
y21_r2 -0.0
y22_r2 -0.0
y23_r2 -0.0
SH5_r2 -0.0
SL5_r2 -0.0
y24_r2 -0.0
y25_r2 -0.0
y26_r2 -0.0
y27_r2 -0.0
SH6_r2 0.0
SL6_r2 -0.0
y28_r2 0.0
y29_r2 -0.0
y30_r2 -0.0
y31_r2 0.0
SH7_r2 0.0
SL7_r2 -0.0
y32_r2 -0.0
y33_r2 -0.0
y34_r2 -0.0
y35_r2 -8.326672684688674e-16
SH8_r2 -9.43689570931383e-16
SL8_r2 -0.0
y36_r2 -0.0
y37_r2 -0.0
y38_r2 2.220446049250313e-16
y39_r2 -5.551115123125783e-17
SH9_r2 -0.0
SL9_r2 -0.0
y40_r2 -0.0
y41_r2 -3.3306690738754696e-16
y42_r2 -0.0
y43_r2 -0.0
SH10_r2 -0.0
SL10_r2 -0.0
y44_r2 -0.0
y45_r2 -0.0
y46_r2 -0.0
y47_r2 2.7755575615628914e-17
SH11_r2 5.551115123125783e-17
SL11_r2 -0.0
y48_r2 -0.0
y49_r2 -4.440892098500626e-16
y50_r2 -0.0
y51_r2 0.0
SH12_r2 -0.0
SL12_r2 -0.0
y52_r2 -0.0
y53_r2 -0.0
y54_r2 -0.0
y55_r2 -0.0
SH13_r2 -0.0
SL13_r2 -0.0
y56_r2 1.0
y57_r2 -4.440892098500626e-16
y58_r2 -0.0
y59_r2 1.0
SH14_r2 1.0
SL14_r2 -4.440892098500626e-16
y60_r2 -0.0
y61_r2 -0.0
y62_r2 -0.0
y63_r2 -0.0
SH15_r2 -0.0
SL15_r2 -0.0
y0_r3 3.352873534367973e-14
y1_r3 1.84297022087776e-14
y2_r3 2.688821387764051e-16
y3_r3 4.196643033083092e-14
SH0_r3 2.6423307986078726e-14
SL0_r3 -0.0
y4_r3 -0.0
y5_r3 -0.0
y6_r3 0.0
y7_r3 -0.0
SH1_r3 0.0
SL1_r3 -0.0
y8_r3 5.0306980803327406e-17
y9_r3 -1.6393136847980827e-16
y10_r3 -4.0852737859253807e-16
y11_r3 -1.5070410197548512e-17
SH2_r3 -1.5287250632045613e-17
SL2_r3 -0.0
y12_r3 2.2648549702353193e-14
y13_r3 0.9999999999999953
y14_r3 -0.0
y15_r3 1.0
SH3_r3 0.9999999999999996
SL3_r3 -0.0
y16_r3 -0.0
y17_r3 -0.0
y18_r3 -0.0
y19_r3 0.0
SH4_r3 -0.0
SL4_r3 -0.0
y20_r3 -8.881784197001252e-16
y21_r3 -0.0
y22_r3 -0.0
y23_r3 0.0
SH5_r3 -0.0
SL5_r3 -0.0
y24_r3 -1.3322676295501878e-15
y25_r3 -0.0
y26_r3 0.0
y27_r3 -3.608224830031759e-16
SH6_r3 -3.608224830031759e-16
SL6_r3 -0.0
y28_r3 -0.0
y29_r3 4.440892098500626e-16
y30_r3 -0.0
y31_r3 -0.0
SH7_r3 -4.440892098500626e-16
SL7_r3 -0.0
y32_r3 -0.0
y33_r3 1.7763568394002505e-15
y34_r3 -0.0
y35_r3 -1.7763568394002505e-15
SH8_r3 -1.7763568394002505e-15
SL8_r3 -0.0
y36_r3 -4.458239333260394e-16
y37_r3 -0.0
y38_r3 2.0539125955565396e-14
y39_r3 0.0
SH9_r3 -0.0
SL9_r3 -0.0
y40_r3 -0.0
y41_r3 -0.0
y42_r3 -0.0
y43_r3 -1.1102230246251565e-16
SH10_r3 0.0
SL10_r3 -0.0
y44_r3 -0.0
y45_r3 -0.0
y46_r3 -0.0
y47_r3 -0.0
SH11_r3 -0.0
SL11_r3 -0.0
y48_r3 -0.0
y49_r3 -1.3005221899398123e-14
y50_r3 -1.3005221899398123e-14
y51_r3 -1.7633464133304244e-14
SH12_r3 -1.3005221899398123e-14
SL12_r3 -0.0
y52_r3 -0.0
y53_r3 -1.9524312722118964e-15
y54_r3 -2.556288514199423e-14
y55_r3 -1.7506829319557937e-14
SH13_r3 -1.9524312722118964e-15
SL13_r3 -0.0
y56_r3 -2.0122792321330962e-15
y57_r3 -2.746934624209274e-15
y58_r3 6.38378239159465e-16
y59_r3 -8.743006318923108e-16
SH14_r3 -9.43689570931383e-16
SL14_r3 -0.0
y60_r3 -0.0
y61_r3 1.0
y62_r3 -0.0
y63_r3 1.0000000000000002
SH15_r3 1.0
SL15_r3 -0.0
y0_r4 -0.0
y1_r4 -0.0
y2_r4 -0.0
y3_r4 -4.135580766728708e-15
SH0_r4 -0.0
SL0_r4 -0.0
y4_r4 -0.0
y5_r4 -0.0
y6_r4 -0.0
y7_r4 -0.0
SH1_r4 -0.0
SL1_r4 -0.0
y8_r4 -0.0
y9_r4 -0.0
y10_r4 -0.0
y11_r4 -6.453171330633722e-16
SH2_r4 -3.3133218391157016e-16
SL2_r4 -0.0
y12_r4 -0.0
y13_r4 -0.0
y14_r4 1.0755285551056204e-15
y15_r4 1.8943180357666733e-15
SH3_r4 -5.030698080332741e-16
SL3_r4 -0.0
y16_r4 1.0000000000000127
y17_r4 -1.509903313490213e-14
y18_r4 -8.881784197001252e-16
y19_r4 1.0000000000000127
SH4_r4 1.0000000000000127
SL4_r4 -0.0
y20_r4 0.0
y21_r4 1.7763568394002505e-15
y22_r4 -0.0
y23_r4 -0.0
SH5_r4 0.0
SL5_r4 -0.0
y24_r4 0.0
y25_r4 3.552713678800501e-15
y26_r4 -0.0
y27_r4 0.0
SH6_r4 0.0
SL6_r4 -0.0
y28_r4 1.0
y29_r4 -2.0739486517040717e-14
y30_r4 0.0
y31_r4 0.9999999999999998
SH7_r4 1.0
SL7_r4 0.0
y32_r4 0.0
y33_r4 -0.0
y34_r4 1.700029006457271e-15
y35_r4 -0.0
SH8_r4 -0.0
SL8_r4 -0.0
y36_r4 -0.0
y37_r4 0.0
y38_r4 -0.0
y39_r4 -0.0
SH9_r4 0.0
SL9_r4 0.0
y40_r4 -0.0
y41_r4 0.0
y42_r4 2.1163626406917047e-15
y43_r4 7.244205235679146e-15
SH10_r4 6.106226635438361e-15
SL10_r4 -0.0
y44_r4 -8.756884106730922e-15
y45_r4 -0.0
y46_r4 -0.0
y47_r4 -1.532107773982716e-14
SH11_r4 -8.978928711655954e-15
SL11_r4 -0.0
y48_r4 0.9999999999999967
y49_r4 -2.220446049250313e-16
y50_r4 4.440892098500626e-16
y51_r4 0.9999999999999967
SH12_r4 0.9999999999999967
SL12_r4 -2.3869795029440866e-14
y52_r4 -2.6645352591003757e-15
y53_r4 -0.0
y54_r4 -0.0
y55_r4 -1.1102230246251565e-16
SH13_r4 -1.1102230246251565e-16
SL13_r4 -0.0
y56_r4 -1.7763568394002505e-15
y57_r4 -0.0
y58_r4 0.0
y59_r4 -3.1086244689504383e-15
SH14_r4 -3.1086244689504383e-15
SL14_r4 -0.0
y60_r4 1.0
y61_r4 -2.220446049250313e-16
y62_r4 8.881784197001252e-16
y63_r4 1.000000000000004
SH15_r4 1.0
SL15_r4 -0.0
y0_r5 -2.9531932455029164e-14
y1_r5 -8.014422459012849e-16
y2_r5 -0.0
y3_r5 -2.531308496145357e-14
SH0_r5 -8.049116928532385e-16
SL0_r5 -0.0
y4_r5 -1.865174681370263e-14
y5_r5 1.0
y6_r5 -0.0
y7_r5 5.329070518200751e-15
SH1_r5 1.0
SL1_r5 -1.9317880628477724e-14
y8_r5 -0.0
y9_r5 -8.756884106730922e-15
y10_r5 -0.0
y11_r5 -4.378442053365461e-15
SH2_r5 -4.378442053365461e-15
SL2_r5 -0.0
y12_r5 5.329070518200751e-15
y13_r5 1.0
y14_r5 -0.0
y15_r5 5.329070518200751e-15
SH3_r5 1.0
SL3_r5 -0.0
y16_r5 -0.0
y17_r5 -0.0
y18_r5 0.0
y19_r5 2.886579864025407e-15
SH4_r5 -0.0
SL4_r5 -0.0
y20_r5 -0.0
y21_r5 -2.3092638912203256e-14
y22_r5 -0.0
y23_r5 -0.0
SH5_r5 -2.0739486517040717e-14
SL5_r5 -0.0
y24_r5 -0.0
y25_r5 -0.0
y26_r5 0.0
y27_r5 -0.0
SH6_r5 -0.0
SL6_r5 -0.0
y28_r5 -0.0
y29_r5 1.7763568394002505e-15
y30_r5 -0.0
y31_r5 -0.0
SH7_r5 -0.0
SL7_r5 -0.0
y32_r5 -1.708702623837155e-16
y33_r5 -0.0
y34_r5 -0.0
y35_r5 -2.1163626406917047e-15
SH8_r5 2.5153490401663703e-16
SL8_r5 -0.0
y36_r5 -0.0
y37_r5 0.0
y38_r5 -0.0
y39_r5 -0.0
SH9_r5 -0.0
SL9_r5 -0.0
y40_r5 -0.0
y41_r5 -0.0
y42_r5 -0.0
y43_r5 -0.0
SH10_r5 1.033895191682177e-15
SL10_r5 -0.0
y44_r5 -0.0
y45_r5 8.881784197001252e-16
y46_r5 -0.0
y47_r5 -0.0
SH11_r5 -0.0
SL11_r5 -0.0
y48_r5 -2.7478019859472624e-15
y49_r5 -0.0
y50_r5 -0.0
y51_r5 4.85722573273506e-15
SH12_r5 -0.0
SL12_r5 -0.0
y52_r5 -1.0907941216942163e-14
y53_r5 0.9999999999998899
y54_r5 1.1102230246251565e-16
y55_r5 1.4566126083082054e-13
SH13_r5 1.0
SL13_r5 -0.0
y56_r5 -8.298917109073045e-15
y57_r5 -8.298917109073045e-15
y58_r5 0.0
y59_r5 -8.076872504148014e-15
SH14_r5 -8.076872504148014e-15
SL14_r5 -0.0
y60_r5 4.664020905598143e-15
y61_r5 0.9999999999999982
y62_r5 1.1102230246251565e-16
y63_r5 -2.680147770384167e-15
SH15_r5 1.0
SL15_r5 -0.0
y0_r6 -0.0
y1_r6 -7.049916206369744e-15
y2_r6 -0.0
y3_r6 4.8606951796870135e-15
SH0_r6 -3.9968028886505635e-15
SL0_r6 -0.0
y4_r6 -0.0
y5_r6 0.0
y6_r6 -0.0
y7_r6 0.0
SH1_r6 -0.0
SL1_r6 -0.0
y8_r6 -0.0
y9_r6 -0.0
y10_r6 -0.0
y11_r6 -2.7972416050126014e-17
SH2_r6 -2.7863995832877464e-17
SL2_r6 -0.0
y12_r6 -0.0
y13_r6 -7.716050021144838e-15
y14_r6 -0.0
y15_r6 4.664020905598143e-15
SH3_r6 4.664020905598143e-15
SL3_r6 -0.0
y16_r6 6.750155989720952e-14
y17_r6 0.0
y18_r6 0.0
y19_r6 1.0000000000000002
SH4_r6 1.0
SL4_r6 0.9999999999999325
y20_r6 2.1316282072803006e-14
y21_r6 0.0
y22_r6 -0.0
y23_r6 0.0
SH5_r6 -0.0
SL5_r6 -0.0
y24_r6 -0.0
y25_r6 3.750472155061857e-15
y26_r6 -0.0
y27_r6 2.903927098785175e-15
SH6_r6 2.8900493109773606e-15
SL6_r6 -0.0
y28_r6 9.592326932761353e-14
y29_r6 0.0
y30_r6 0.0
y31_r6 0.9999999999999978
SH7_r6 0.9999999999999978
SL7_r6 0.9999999999999041
y32_r6 -0.0
y33_r6 -0.0
y34_r6 -0.0
y35_r6 -0.0
SH8_r6 -0.0
SL8_r6 -0.0
y36_r6 -0.0
y37_r6 -0.0
y38_r6 -0.0
y39_r6 -0.0
SH9_r6 0.0
SL9_r6 -0.0
y40_r6 -0.0
y41_r6 -0.0
y42_r6 -0.0
y43_r6 -0.0
SH10_r6 -0.0
SL10_r6 -0.0
y44_r6 -0.0
y45_r6 -0.0
y46_r6 -0.0
y47_r6 -0.0
SH11_r6 -0.0
SL11_r6 -0.0
y48_r6 -0.0
y49_r6 -2.2737367544323206e-13
y50_r6 -0.0
y51_r6 1.0658141036401503e-13
SH12_r6 5.329070518200751e-15
SL12_r6 1.652011860642233e-13
y52_r6 -0.0
y53_r6 -1.7763568394002505e-15
y54_r6 -0.0
y55_r6 0.0
SH13_r6 -0.0
SL13_r6 -0.0
y56_r6 -0.0
y57_r6 -0.0
y58_r6 6.279698983036042e-16
y59_r6 7.892991815694472e-17
SH14_r6 5.117434254131581e-17
SL14_r6 -0.0
y60_r6 -6.661338147750939e-16
y61_r6 -1.580957587066223e-13
y62_r6 -0.0
y63_r6 -9.037909309839165e-16
SH15_r6 -1.7919693506840417e-15
SL15_r6 1.545430450278218e-13
y0_r7 -0.0
y1_r7 -0.0
y2_r7 -0.0
y3_r7 -0.0
SH0_r7 -0.0
SL0_r7 -0.0
y4_r7 -0.0
y5_r7 -1.3378187446733136e-14
y6_r7 0.0
y7_r7 0.0
SH1_r7 6.750155989720952e-14
SL1_r7 -0.0
y8_r7 -0.0
y9_r7 -0.0
y10_r7 -0.0
y11_r7 -0.0
SH2_r7 -0.0
SL2_r7 -0.0
y12_r7 -1.5543122344752192e-15
y13_r7 1.176836406102666e-14
y14_r7 -0.0
y15_r7 -0.0
SH3_r7 -0.0
SL3_r7 -0.0
y16_r7 -0.0
y17_r7 -2.0650148258027912e-14
y18_r7 -3.885780586188048e-15
y19_r7 -0.0
SH4_r7 -7.716050021144838e-15
SL4_r7 -0.0
y20_r7 -6.039613253960852e-13
y21_r7 -8.43769498715119e-14
y22_r7 -1.1990408665951547e-13
y23_r7 0.0
SH5_r7 -0.0
SL5_r7 -0.0
y24_r7 1.3855583347321954e-13
y25_r7 -6.927791673660977e-14
y26_r7 -0.0
y27_r7 -0.0
SH6_r7 -0.0
SL6_r7 -0.0
y28_r7 -8.526512829121202e-14
y29_r7 -4.6906922790412864e-14
y30_r7 -0.0
y31_r7 -0.0
SH7_r7 -1.3855583347321954e-13
SL7_r7 -0.0
y32_r7 -0.0
y33_r7 -0.0
y34_r7 -0.0
y35_r7 -0.0
SH8_r7 -0.0
SL8_r7 -0.0
y36_r7 -0.0
y37_r7 -0.0
y38_r7 -0.0
y39_r7 -0.0
SH9_r7 -0.0
SL9_r7 -0.0
y40_r7 -0.0
y41_r7 0.0
y42_r7 -0.0
y43_r7 -0.0
SH10_r7 -0.0
SL10_r7 -0.0
y44_r7 -0.0
y45_r7 0.0
y46_r7 -0.0
y47_r7 -0.0
SH11_r7 -0.0
SL11_r7 -0.0
y48_r7 4.418687638008123e-14
y49_r7 4.664020905598143e-15
y50_r7 -3.6193270602780103e-14
y51_r7 -0.0
SH12_r7 4.664020905598143e-15
SL12_r7 -0.0
y52_r7 1.6431300764452317e-13
y53_r7 0.9999999999998312
y54_r7 0.0
y55_r7 0.0
SH13_r7 1.0
SL13_r7 1.6608936448392342e-13
y56_r7 -0.0
y57_r7 -0.0
y58_r7 -0.0
y59_r7 -0.0
SH14_r7 -0.0
SL14_r7 -0.0
y60_r7 1.3811174426336947e-13
y61_r7 -1.9767174008755717e-15
y62_r7 -1.9767174008755717e-15
y63_r7 -0.0
SH15_r7 -1.9767174008755717e-15
SL15_r7 -4.2500725161431774e-16
y0_r8 -0.0
y1_r8 -0.0
y2_r8 -0.0
y3_r8 -0.0
SH0_r8 0.0
SL0_r8 -0.0
y4_r8 -0.0
y5_r8 -8.526512829121202e-13
y6_r8 -0.0
y7_r8 -0.0
SH1_r8 -1.8829382497642655e-13
SL1_r8 -0.0
y8_r8 0.0
y9_r8 0.0
y10_r8 -0.0
y11_r8 0.0
SH2_r8 0.0
SL2_r8 -0.0
y12_r8 0.0
y13_r8 9.325873406851315e-14
y14_r8 -0.0
y15_r8 -0.0
SH3_r8 1.6431300764452317e-13
SL3_r8 3.197442310920451e-14
y16_r8 -0.0
y17_r8 -2.886579864025407e-15
y18_r8 -1.4654943925052066e-14
y19_r8 -5.950795411990839e-14
SH4_r8 -2.886579864025407e-15
SL4_r8 -0.0
y20_r8 -3.4727776210274897e-13
y21_r8 -0.0
y22_r8 -5.062616992290714e-14
y23_r8 -0.0
SH5_r8 -5.062616992290714e-14
SL5_r8 -0.0
y24_r8 -0.0
y25_r8 -0.0
y26_r8 -0.0
y27_r8 -0.0
SH6_r8 -1.7763568394002505e-15
SL6_r8 -0.0
y28_r8 0.0
y29_r8 0.9999999999998413
y30_r8 1.0391687510491465e-13
y31_r8 0.9999999999995951
SH7_r8 0.9999999999998312
SL7_r8 1.163513729807164e-13
y32_r8 -0.0
y33_r8 0.0
y34_r8 -0.0
y35_r8 -0.0
SH8_r8 -0.0
SL8_r8 -0.0
y36_r8 -0.0
y37_r8 5.252742685257772e-15
y38_r8 -0.0
y39_r8 1.089545120791513e-13
SH9_r8 -0.0
SL9_r8 -0.0
y40_r8 -0.0
y41_r8 -0.0
y42_r8 -0.0
y43_r8 0.0
SH10_r8 0.0
SL10_r8 -0.0
y44_r8 3.2088220969228587e-13
y45_r8 2.899902540320909e-13
y46_r8 -3.1250002585636594e-13
y47_r8 0.0
SH11_r8 -0.0
SL11_r8 3.151368055398507e-13
y48_r8 -0.0
y49_r8 0.0
y50_r8 -0.0
y51_r8 -0.0
SH12_r8 -0.0
SL12_r8 -0.0
y52_r8 0.0
y53_r8 0.0
y54_r8 -0.0
y55_r8 -0.0
SH13_r8 -0.0
SL13_r8 -0.0
y56_r8 0.0
y57_r8 -0.0
y58_r8 0.0
y59_r8 -0.0
SH14_r8 0.0
SL14_r8 -0.0
y60_r8 0.0
y61_r8 0.0
y62_r8 0.0
y63_r8 0.0
SH15_r8 -0.0
SL15_r8 -0.0
y0_r9 0.0
y1_r9 -0.0
y2_r9 -0.0
y3_r9 0.0
SH0_r9 -0.0
SL0_r9 -0.0
y4_r9 -0.0
y5_r9 0.0
y6_r9 -0.0
y7_r9 1.687538997430238e-13
SH1_r9 -0.0
SL1_r9 -0.0
y8_r9 3.20798942965439e-13
y9_r9 0.0
y10_r9 -0.0
y11_r9 3.207156762385921e-13
SH2_r9 3.20798942965439e-13
SL2_r9 -0.0
y12_r9 -0.0
y13_r9 -0.0
y14_r9 0.0
y15_r9 -0.0
SH3_r9 0.0
SL3_r9 -0.0
y16_r9 -0.0
y17_r9 3.552713678800501e-13
y18_r9 -0.0
y19_r9 -0.0
SH4_r9 9.325873406851315e-14
SL4_r9 -0.0
y20_r9 -0.0
y21_r9 -0.0
y22_r9 0.9999999999999888
y23_r9 1.000000000000007
SH5_r9 1.0
SL5_r9 -0.0
y24_r9 2.760014439218139e-13
y25_r9 1.5792922525292852e-14
y26_r9 -0.0
y27_r9 2.824407374646398e-13
SH6_r9 2.90656387846866e-13
SL6_r9 -0.0
y28_r9 -0.0
y29_r9 -0.0
y30_r9 -0.0
y31_r9 -0.0
SH7_r9 -0.0
SL7_r9 -0.0
y32_r9 0.0
y33_r9 -0.0
y34_r9 -0.0
y35_r9 -0.0
SH8_r9 0.0
SL8_r9 -0.0
y36_r9 -0.0
y37_r9 1.687538997430238e-13
y38_r9 -0.0
y39_r9 -0.0
SH9_r9 1.056932319443149e-13
SL9_r9 4.973799150320701e-14
y40_r9 -1.56472057533108e-13
y41_r9 -1.5620837956475953e-13
y42_r9 -0.0
y43_r9 -3.1269431488567534e-13
SH10_r9 -3.1269431488567534e-13
SL10_r9 -0.0
y44_r9 -0.0
y45_r9 0.0
y46_r9 -0.0
y47_r9 -0.0
SH11_r9 0.0
SL11_r9 -0.0
y48_r9 0.0
y49_r9 0.0
y50_r9 -0.0
y51_r9 0.0
SH12_r9 0.0
SL12_r9 -0.0
y52_r9 1.0000000000000124
y53_r9 -1.8207657603852567e-14
y54_r9 -0.0
y55_r9 1.0000000000000542
SH13_r9 1.0
SL13_r9 -0.0
y56_r9 2.179090241583026e-13
y57_r9 -0.0
y58_r9 -0.0
y59_r9 -0.0
SH14_r9 -0.0
SL14_r9 -0.0
y60_r9 0.0
y61_r9 0.0
y62_r9 -0.0
y63_r9 0.0
SH15_r9 -0.0
SL15_r9 -0.0
